\ SCIP STATISTICS
\   Problem name     : t_neos5
\   Variables        : 63 (53 binary, 0 integer, 0 implicit integer, 10 continuous)
\   Constraints      : 64
Minimize
 Obj: +1 t_d52 +1 t_d1 +1 t_d2 +1 t_d3 +1 t_d4 +1 t_d5 +1 t_d6 +1 t_d7 +1 t_d8 +1 t_d9 +1 t_d10 +1 t_d11
      +1 t_d12 +1 t_d13 +1 t_d14 +1 t_d15 +1 t_d16 +1 t_d17 +1 t_d18 +1 t_d19 +1 t_d20 +1 t_d21 +1 t_d22
      +1 t_d23 +1 t_d24 +1 t_d25 +1 t_d26 +1 t_d27 +1 t_d28 +1 t_d29 +1 t_d30 +1 t_d31 +1 t_d32 +1 t_d33
      +1 t_d34 +1 t_d35 +1 t_d36 +1 t_d37 +1 t_d38 +1 t_d39 +1 t_d40 +1 t_d41 +1 t_d42 +1 t_d43 +1 t_d44
      +1 t_d45 +1 t_d46 +1 t_d47 +1 t_d48 +1 t_d49 +1 t_d50 +1 t_d51 +1 t_d53 +1 t_d54 +1 t_d55 +1 t_d56
      +1 t_d57 +1 t_d58 +1 t_d59 +1 t_d60 +1 t_d61 +1 t_d62 +1 t_d63
Subject to
 R1: +1 t_d1 +1 t_d2 +1 t_d3 +1 t_d4 +1 t_d5 +1 t_d6 +1 t_d7 +1 t_d8 +1 t_d9 +1 t_d10 +1 t_d11 +1 t_d12
  +1 t_d13 +1 t_d14 +1 t_d15 +1 t_d16 +1 t_d17 +1 t_d18 +1 t_d19 +1 t_d20 +1 t_d21 +1 t_d22 +1 t_d23 +1 t_d24
  +1 t_d25 +1 t_d26 +1 t_d27 +1 t_d28 +1 t_d29 +1 t_d30 +1 t_d31 +1 t_d32 >= +8
 R56: +1 t_d2 +1 t_d3 +1 t_d5 +1 t_d8 +1 t_d9 +1 t_d12 +1 t_d14 +1 t_d15 +1 t_d18 +1 t_d19 +1 t_d21 +1 t_d24
  +1 t_d25 +1 t_d28 +1 t_d30 +1 t_d31 +1 t_d34 +1 t_d35 +1 t_d37 +1 t_d40 +1 t_d41 +1 t_d44 +1 t_d46 +1 t_d47
  +1 t_d50 +1 t_d51 +1 t_d53 +1 t_d56 +1 t_d57 +1 t_d60 +1 t_d62 +1 t_d63 >= +5
 R3: +1 t_d52 +1 t_d1 +1 t_d2 +1 t_d3 +1 t_d4 +1 t_d5 +1 t_d6 +1 t_d7 +1 t_d8 +1 t_d17 +1 t_d18 +1 t_d19
  +1 t_d20 +1 t_d21 +1 t_d22 +1 t_d23 +1 t_d24 +1 t_d33 +1 t_d34 +1 t_d35 +1 t_d36 +1 t_d37 +1 t_d38 +1 t_d39
  +1 t_d40 +1 t_d49 +1 t_d50 +1 t_d51 +1 t_d53 +1 t_d54 +1 t_d55 +1 t_d56 >= +8
 R38: +1 t_d1 +1 t_d4 +1 t_d5 +1 t_d8 +1 t_d9 +1 t_d12 +1 t_d13 +1 t_d16 +1 t_d17 +1 t_d20 +1 t_d21 +1 t_d24
  +1 t_d25 +1 t_d28 +1 t_d29 +1 t_d32 +1 t_d34 +1 t_d35 +1 t_d38 +1 t_d39 +1 t_d42 +1 t_d43 +1 t_d46 +1 t_d47
  +1 t_d50 +1 t_d51 +1 t_d54 +1 t_d55 +1 t_d58 +1 t_d59 +1 t_d62 +1 t_d63 >= +6
 R30: +1 t_d52 +1 t_d1 +1 t_d2 +1 t_d7 +1 t_d8 +1 t_d9 +1 t_d10 +1 t_d15 +1 t_d16 +1 t_d19 +1 t_d20 +1 t_d21
  +1 t_d22 +1 t_d27 +1 t_d28 +1 t_d29 +1 t_d30 +1 t_d33 +1 t_d34 +1 t_d39 +1 t_d40 +1 t_d41 +1 t_d42 +1 t_d47
  +1 t_d48 +1 t_d51 +1 t_d53 +1 t_d54 +1 t_d59 +1 t_d60 +1 t_d61 +1 t_d62 >= +6
 R22: +1 t_d52 +1 t_d1 +1 t_d2 +1 t_d3 +1 t_d4 +1 t_d5 +1 t_d6 +1 t_d7 +1 t_d8 +1 t_d25 +1 t_d26 +1 t_d27
  +1 t_d28 +1 t_d29 +1 t_d30 +1 t_d31 +1 t_d32 +1 t_d41 +1 t_d42 +1 t_d43 +1 t_d44 +1 t_d45 +1 t_d46 +1 t_d47
  +1 t_d48 +1 t_d49 +1 t_d50 +1 t_d51 +1 t_d53 +1 t_d54 +1 t_d55 +1 t_d56 >= +6
 R41: +1 t_d52 +1 t_d1 +1 t_d4 +1 t_d6 +1 t_d7 +1 t_d9 +1 t_d12 +1 t_d14 +1 t_d15 +1 t_d17 +1 t_d20 +1 t_d22
  +1 t_d23 +1 t_d25 +1 t_d28 +1 t_d30 +1 t_d31 +1 t_d33 +1 t_d36 +1 t_d38 +1 t_d39 +1 t_d41 +1 t_d44 +1 t_d46
  +1 t_d47 +1 t_d49 +1 t_d54 +1 t_d55 +1 t_d57 +1 t_d60 +1 t_d62 +1 t_d63 >= +6
 R13: +1 t_d3 +1 t_d4 +1 t_d7 +1 t_d8 +1 t_d11 +1 t_d12 +1 t_d15 +1 t_d16 +1 t_d19 +1 t_d20 +1 t_d23 +1 t_d24
  +1 t_d27 +1 t_d28 +1 t_d31 +1 t_d32 +1 t_d33 +1 t_d34 +1 t_d37 +1 t_d38 +1 t_d41 +1 t_d42 +1 t_d45 +1 t_d46
  +1 t_d49 +1 t_d50 +1 t_d53 +1 t_d54 +1 t_d57 +1 t_d58 +1 t_d61 +1 t_d62 >= +7
 R6: +1 t_d1 +1 t_d3 +1 t_d5 +1 t_d7 +1 t_d9 +1 t_d11 +1 t_d13 +1 t_d15 +1 t_d17 +1 t_d19 +1 t_d21 +1 t_d23
  +1 t_d25 +1 t_d27 +1 t_d29 +1 t_d31 +1 t_d33 +1 t_d35 +1 t_d37 +1 t_d39 +1 t_d41 +1 t_d43 +1 t_d45 +1 t_d47
  +1 t_d49 +1 t_d51 +1 t_d53 +1 t_d55 +1 t_d57 +1 t_d59 +1 t_d61 +1 t_d63 >= +8
 R10: +1 t_d52 +1 t_d5 +1 t_d6 +1 t_d7 +1 t_d8 +1 t_d13 +1 t_d14 +1 t_d15 +1 t_d16 +1 t_d21 +1 t_d22 +1 t_d23
  +1 t_d24 +1 t_d29 +1 t_d30 +1 t_d31 +1 t_d32 +1 t_d33 +1 t_d34 +1 t_d35 +1 t_d36 +1 t_d41 +1 t_d42 +1 t_d43
  +1 t_d44 +1 t_d49 +1 t_d50 +1 t_d51 +1 t_d57 +1 t_d58 +1 t_d59 +1 t_d60 >= +7
 R11: +1 t_d52 +1 t_d5 +1 t_d6 +1 t_d7 +1 t_d8 +1 t_d13 +1 t_d14 +1 t_d15 +1 t_d16 +1 t_d17 +1 t_d18 +1 t_d19
  +1 t_d20 +1 t_d25 +1 t_d26 +1 t_d27 +1 t_d28 +1 t_d37 +1 t_d38 +1 t_d39 +1 t_d40 +1 t_d45 +1 t_d46 +1 t_d47
  +1 t_d48 +1 t_d49 +1 t_d50 +1 t_d51 +1 t_d57 +1 t_d58 +1 t_d59 +1 t_d60 >= +7
 R28: +1 t_d52 +1 t_d1 +1 t_d2 +1 t_d5 +1 t_d6 +1 t_d11 +1 t_d12 +1 t_d15 +1 t_d16 +1 t_d19 +1 t_d20 +1 t_d23
  +1 t_d24 +1 t_d25 +1 t_d26 +1 t_d29 +1 t_d30 +1 t_d33 +1 t_d34 +1 t_d37 +1 t_d38 +1 t_d43 +1 t_d44 +1 t_d47
  +1 t_d48 +1 t_d51 +1 t_d55 +1 t_d56 +1 t_d57 +1 t_d58 +1 t_d61 +1 t_d62 >= +6
 R42: +1 t_d5 +1 t_d6 +1 t_d7 +1 t_d8 +1 t_d9 +1 t_d10 +1 t_d11 +1 t_d12 +1 t_d17 +1 t_d18 +1 t_d19 +1 t_d20
  +1 t_d29 +1 t_d30 +1 t_d31 +1 t_d32 +1 t_d33 +1 t_d34 +1 t_d35 +1 t_d36 +1 t_d45 +1 t_d46 +1 t_d47 +1 t_d48
  +1 t_d53 +1 t_d54 +1 t_d55 +1 t_d56 +1 t_d57 +1 t_d58 +1 t_d59 +1 t_d60 >= +5
 R26: +1 t_d1 +1 t_d2 +1 t_d5 +1 t_d6 +1 t_d9 +1 t_d10 +1 t_d13 +1 t_d14 +1 t_d19 +1 t_d20 +1 t_d23 +1 t_d24
  +1 t_d27 +1 t_d28 +1 t_d31 +1 t_d32 +1 t_d35 +1 t_d36 +1 t_d39 +1 t_d40 +1 t_d43 +1 t_d44 +1 t_d47 +1 t_d48
  +1 t_d49 +1 t_d50 +1 t_d53 +1 t_d54 +1 t_d57 +1 t_d58 +1 t_d61 +1 t_d62 >= +6
 R36: +1 t_d52 +1 t_d1 +1 t_d3 +1 t_d6 +1 t_d8 +1 t_d9 +1 t_d11 +1 t_d14 +1 t_d16 +1 t_d18 +1 t_d20 +1 t_d21
  +1 t_d23 +1 t_d26 +1 t_d28 +1 t_d29 +1 t_d31 +1 t_d33 +1 t_d35 +1 t_d38 +1 t_d40 +1 t_d41 +1 t_d43 +1 t_d46
  +1 t_d48 +1 t_d50 +1 t_d53 +1 t_d55 +1 t_d58 +1 t_d60 +1 t_d61 +1 t_d63 >= +6
 R46: +1 t_d3 +1 t_d4 +1 t_d5 +1 t_d6 +1 t_d9 +1 t_d10 +1 t_d15 +1 t_d16 +1 t_d17 +1 t_d18 +1 t_d23 +1 t_d24
  +1 t_d27 +1 t_d28 +1 t_d29 +1 t_d30 +1 t_d35 +1 t_d36 +1 t_d37 +1 t_d38 +1 t_d41 +1 t_d42 +1 t_d47 +1 t_d48
  +1 t_d49 +1 t_d50 +1 t_d55 +1 t_d56 +1 t_d59 +1 t_d60 +1 t_d61 +1 t_d62 >= +5
 R18: +1 t_d2 +1 t_d4 +1 t_d6 +1 t_d8 +1 t_d10 +1 t_d12 +1 t_d14 +1 t_d16 +1 t_d17 +1 t_d19 +1 t_d21 +1 t_d23
  +1 t_d25 +1 t_d27 +1 t_d29 +1 t_d31 +1 t_d34 +1 t_d36 +1 t_d38 +1 t_d40 +1 t_d42 +1 t_d44 +1 t_d46 +1 t_d48
  +1 t_d49 +1 t_d51 +1 t_d53 +1 t_d55 +1 t_d57 +1 t_d59 +1 t_d61 +1 t_d63 >= +7
 R51: +1 t_d2 +1 t_d3 +1 t_d6 +1 t_d7 +1 t_d10 +1 t_d11 +1 t_d14 +1 t_d15 +1 t_d17 +1 t_d20 +1 t_d21 +1 t_d24
  +1 t_d25 +1 t_d28 +1 t_d29 +1 t_d32 +1 t_d33 +1 t_d36 +1 t_d37 +1 t_d40 +1 t_d41 +1 t_d44 +1 t_d45 +1 t_d48
  +1 t_d50 +1 t_d51 +1 t_d54 +1 t_d55 +1 t_d58 +1 t_d59 +1 t_d62 +1 t_d63 >= +5
 R33: +1 t_d52 +1 t_d1 +1 t_d3 +1 t_d5 +1 t_d7 +1 t_d10 +1 t_d12 +1 t_d14 +1 t_d16 +1 t_d17 +1 t_d19 +1 t_d21
  +1 t_d23 +1 t_d26 +1 t_d28 +1 t_d30 +1 t_d32 +1 t_d34 +1 t_d36 +1 t_d38 +1 t_d40 +1 t_d41 +1 t_d43 +1 t_d45
  +1 t_d47 +1 t_d50 +1 t_d54 +1 t_d56 +1 t_d57 +1 t_d59 +1 t_d61 +1 t_d63 >= +6
 R23: +1 t_d52 +1 t_d1 +1 t_d2 +1 t_d3 +1 t_d4 +1 t_d9 +1 t_d10 +1 t_d11 +1 t_d12 +1 t_d21 +1 t_d22 +1 t_d23
  +1 t_d24 +1 t_d29 +1 t_d30 +1 t_d31 +1 t_d32 +1 t_d37 +1 t_d38 +1 t_d39 +1 t_d40 +1 t_d45 +1 t_d46 +1 t_d47
  +1 t_d48 +1 t_d49 +1 t_d50 +1 t_d51 +1 t_d57 +1 t_d58 +1 t_d59 +1 t_d60 >= +6
 R15: +1 t_d52 +1 t_d3 +1 t_d4 +1 t_d7 +1 t_d8 +1 t_d9 +1 t_d10 +1 t_d13 +1 t_d14 +1 t_d19 +1 t_d20 +1 t_d23
  +1 t_d24 +1 t_d25 +1 t_d26 +1 t_d29 +1 t_d30 +1 t_d35 +1 t_d36 +1 t_d39 +1 t_d40 +1 t_d41 +1 t_d42 +1 t_d45
  +1 t_d46 +1 t_d51 +1 t_d55 +1 t_d56 +1 t_d57 +1 t_d58 +1 t_d61 +1 t_d62 >= +7
 R4: +1 t_d52 +1 t_d1 +1 t_d2 +1 t_d3 +1 t_d4 +1 t_d9 +1 t_d10 +1 t_d11 +1 t_d12 +1 t_d17 +1 t_d18 +1 t_d19
  +1 t_d20 +1 t_d25 +1 t_d26 +1 t_d27 +1 t_d28 +1 t_d33 +1 t_d34 +1 t_d35 +1 t_d36 +1 t_d41 +1 t_d42 +1 t_d43
  +1 t_d44 +1 t_d49 +1 t_d50 +1 t_d51 +1 t_d57 +1 t_d58 +1 t_d59 +1 t_d60 >= +8
 R43: +1 t_d52 +1 t_d3 +1 t_d4 +1 t_d7 +1 t_d8 +1 t_d9 +1 t_d10 +1 t_d13 +1 t_d14 +1 t_d17 +1 t_d18 +1 t_d21
  +1 t_d22 +1 t_d27 +1 t_d28 +1 t_d31 +1 t_d32 +1 t_d33 +1 t_d34 +1 t_d37 +1 t_d38 +1 t_d43 +1 t_d44 +1 t_d47
  +1 t_d48 +1 t_d51 +1 t_d55 +1 t_d56 +1 t_d57 +1 t_d58 +1 t_d61 +1 t_d62 >= +5
 R2: +1 t_d1 +1 t_d2 +1 t_d3 +1 t_d4 +1 t_d5 +1 t_d6 +1 t_d7 +1 t_d8 +1 t_d9 +1 t_d10 +1 t_d11 +1 t_d12
  +1 t_d13 +1 t_d14 +1 t_d15 +1 t_d16 +1 t_d33 +1 t_d34 +1 t_d35 +1 t_d36 +1 t_d37 +1 t_d38 +1 t_d39 +1 t_d40
  +1 t_d41 +1 t_d42 +1 t_d43 +1 t_d44 +1 t_d45 +1 t_d46 +1 t_d47 +1 t_d48 >= +8
 R48: +1 t_d52 +1 t_d2 +1 t_d4 +1 t_d5 +1 t_d7 +1 t_d10 +1 t_d12 +1 t_d13 +1 t_d15 +1 t_d17 +1 t_d19 +1 t_d22
  +1 t_d24 +1 t_d25 +1 t_d27 +1 t_d30 +1 t_d32 +1 t_d33 +1 t_d35 +1 t_d38 +1 t_d40 +1 t_d41 +1 t_d43 +1 t_d46
  +1 t_d48 +1 t_d50 +1 t_d53 +1 t_d55 +1 t_d58 +1 t_d60 +1 t_d61 +1 t_d63 >= +5
 R25: +1 t_d1 +1 t_d2 +1 t_d3 +1 t_d4 +1 t_d13 +1 t_d14 +1 t_d15 +1 t_d16 +1 t_d21 +1 t_d22 +1 t_d23 +1 t_d24
  +1 t_d25 +1 t_d26 +1 t_d27 +1 t_d28 +1 t_d33 +1 t_d34 +1 t_d35 +1 t_d36 +1 t_d45 +1 t_d46 +1 t_d47 +1 t_d48
  +1 t_d53 +1 t_d54 +1 t_d55 +1 t_d56 +1 t_d57 +1 t_d58 +1 t_d59 +1 t_d60 >= +6
 R24: +1 t_d1 +1 t_d2 +1 t_d3 +1 t_d4 +1 t_d13 +1 t_d14 +1 t_d15 +1 t_d16 +1 t_d17 +1 t_d18 +1 t_d19 +1 t_d20
  +1 t_d29 +1 t_d30 +1 t_d31 +1 t_d32 +1 t_d37 +1 t_d38 +1 t_d39 +1 t_d40 +1 t_d41 +1 t_d42 +1 t_d43 +1 t_d44
  +1 t_d53 +1 t_d54 +1 t_d55 +1 t_d56 +1 t_d57 +1 t_d58 +1 t_d59 +1 t_d60 >= +6
 R16: +1 t_d52 +1 t_d3 +1 t_d4 +1 t_d5 +1 t_d6 +1 t_d11 +1 t_d12 +1 t_d13 +1 t_d14 +1 t_d19 +1 t_d20 +1 t_d21
  +1 t_d22 +1 t_d27 +1 t_d28 +1 t_d29 +1 t_d30 +1 t_d35 +1 t_d36 +1 t_d37 +1 t_d38 +1 t_d43 +1 t_d44 +1 t_d45
  +1 t_d46 +1 t_d51 +1 t_d53 +1 t_d54 +1 t_d59 +1 t_d60 +1 t_d61 +1 t_d62 >= +7
 R9: +1 t_d52 +1 t_d9 +1 t_d10 +1 t_d11 +1 t_d12 +1 t_d13 +1 t_d14 +1 t_d15 +1 t_d16 +1 t_d17 +1 t_d18
  +1 t_d19 +1 t_d20 +1 t_d21 +1 t_d22 +1 t_d23 +1 t_d24 +1 t_d41 +1 t_d42 +1 t_d43 +1 t_d44 +1 t_d45 +1 t_d46
  +1 t_d47 +1 t_d48 +1 t_d49 +1 t_d50 +1 t_d51 +1 t_d53 +1 t_d54 +1 t_d55 +1 t_d56 >= +7
 R8: +1 t_d52 +1 t_d9 +1 t_d10 +1 t_d11 +1 t_d12 +1 t_d13 +1 t_d14 +1 t_d15 +1 t_d16 +1 t_d25 +1 t_d26
  +1 t_d27 +1 t_d28 +1 t_d29 +1 t_d30 +1 t_d31 +1 t_d32 +1 t_d33 +1 t_d34 +1 t_d35 +1 t_d36 +1 t_d37 +1 t_d38
  +1 t_d39 +1 t_d40 +1 t_d49 +1 t_d50 +1 t_d51 +1 t_d53 +1 t_d54 +1 t_d55 +1 t_d56 >= +7
 R55: +1 t_d52 +1 t_d2 +1 t_d3 +1 t_d5 +1 t_d8 +1 t_d10 +1 t_d11 +1 t_d13 +1 t_d16 +1 t_d17 +1 t_d20 +1 t_d22
  +1 t_d23 +1 t_d25 +1 t_d28 +1 t_d30 +1 t_d31 +1 t_d34 +1 t_d35 +1 t_d37 +1 t_d40 +1 t_d42 +1 t_d43 +1 t_d45
  +1 t_d48 +1 t_d49 +1 t_d54 +1 t_d55 +1 t_d57 +1 t_d60 +1 t_d62 +1 t_d63 >= +5
 R47: +1 t_d52 +1 t_d2 +1 t_d4 +1 t_d6 +1 t_d8 +1 t_d9 +1 t_d11 +1 t_d13 +1 t_d15 +1 t_d17 +1 t_d19 +1 t_d21
  +1 t_d23 +1 t_d26 +1 t_d28 +1 t_d30 +1 t_d32 +1 t_d33 +1 t_d35 +1 t_d37 +1 t_d39 +1 t_d42 +1 t_d44 +1 t_d46
  +1 t_d48 +1 t_d50 +1 t_d54 +1 t_d56 +1 t_d57 +1 t_d59 +1 t_d61 +1 t_d63 >= +5
 R40: +1 t_d52 +1 t_d1 +1 t_d4 +1 t_d5 +1 t_d8 +1 t_d10 +1 t_d11 +1 t_d14 +1 t_d15 +1 t_d17 +1 t_d20 +1 t_d21
  +1 t_d24 +1 t_d26 +1 t_d27 +1 t_d30 +1 t_d31 +1 t_d33 +1 t_d36 +1 t_d37 +1 t_d40 +1 t_d42 +1 t_d43 +1 t_d46
  +1 t_d47 +1 t_d49 +1 t_d53 +1 t_d56 +1 t_d58 +1 t_d59 +1 t_d62 +1 t_d63 >= +6
 R39: +1 t_d1 +1 t_d4 +1 t_d5 +1 t_d8 +1 t_d9 +1 t_d12 +1 t_d13 +1 t_d16 +1 t_d18 +1 t_d19 +1 t_d22 +1 t_d23
  +1 t_d26 +1 t_d27 +1 t_d30 +1 t_d31 +1 t_d33 +1 t_d36 +1 t_d37 +1 t_d40 +1 t_d41 +1 t_d44 +1 t_d45 +1 t_d48
  +1 t_d50 +1 t_d51 +1 t_d54 +1 t_d55 +1 t_d58 +1 t_d59 +1 t_d62 +1 t_d63 >= +6
 R37: +1 t_d1 +1 t_d3 +1 t_d6 +1 t_d8 +1 t_d10 +1 t_d12 +1 t_d13 +1 t_d15 +1 t_d17 +1 t_d19 +1 t_d22 +1 t_d24
  +1 t_d26 +1 t_d28 +1 t_d29 +1 t_d31 +1 t_d33 +1 t_d35 +1 t_d38 +1 t_d40 +1 t_d42 +1 t_d44 +1 t_d45 +1 t_d47
  +1 t_d49 +1 t_d51 +1 t_d54 +1 t_d56 +1 t_d58 +1 t_d60 +1 t_d61 +1 t_d63 >= +6
 R29: +1 t_d52 +1 t_d1 +1 t_d2 +1 t_d7 +1 t_d8 +1 t_d9 +1 t_d10 +1 t_d15 +1 t_d16 +1 t_d17 +1 t_d18 +1 t_d23
  +1 t_d24 +1 t_d25 +1 t_d26 +1 t_d31 +1 t_d32 +1 t_d35 +1 t_d36 +1 t_d37 +1 t_d38 +1 t_d43 +1 t_d44 +1 t_d45
  +1 t_d46 +1 t_d51 +1 t_d53 +1 t_d54 +1 t_d59 +1 t_d60 +1 t_d61 +1 t_d62 >= +6
 R17: +1 t_d2 +1 t_d4 +1 t_d6 +1 t_d8 +1 t_d10 +1 t_d12 +1 t_d14 +1 t_d16 +1 t_d18 +1 t_d20 +1 t_d22 +1 t_d24
  +1 t_d26 +1 t_d28 +1 t_d30 +1 t_d32 +1 t_d33 +1 t_d35 +1 t_d37 +1 t_d39 +1 t_d41 +1 t_d43 +1 t_d45 +1 t_d47
  +1 t_d49 +1 t_d51 +1 t_d53 +1 t_d55 +1 t_d57 +1 t_d59 +1 t_d61 +1 t_d63 >= +7
 R12: +1 t_d5 +1 t_d6 +1 t_d7 +1 t_d8 +1 t_d9 +1 t_d10 +1 t_d11 +1 t_d12 +1 t_d21 +1 t_d22 +1 t_d23 +1 t_d24
  +1 t_d25 +1 t_d26 +1 t_d27 +1 t_d28 +1 t_d37 +1 t_d38 +1 t_d39 +1 t_d40 +1 t_d41 +1 t_d42 +1 t_d43 +1 t_d44
  +1 t_d53 +1 t_d54 +1 t_d55 +1 t_d56 +1 t_d57 +1 t_d58 +1 t_d59 +1 t_d60 >= +7
 R44: +1 t_d52 +1 t_d3 +1 t_d4 +1 t_d5 +1 t_d6 +1 t_d11 +1 t_d12 +1 t_d13 +1 t_d14 +1 t_d17 +1 t_d18 +1 t_d23
  +1 t_d24 +1 t_d25 +1 t_d26 +1 t_d31 +1 t_d32 +1 t_d33 +1 t_d34 +1 t_d39 +1 t_d40 +1 t_d41 +1 t_d42 +1 t_d47
  +1 t_d48 +1 t_d51 +1 t_d53 +1 t_d54 +1 t_d59 +1 t_d60 +1 t_d61 +1 t_d62 >= +5
 R45: +1 t_d3 +1 t_d4 +1 t_d5 +1 t_d6 +1 t_d9 +1 t_d10 +1 t_d15 +1 t_d16 +1 t_d19 +1 t_d20 +1 t_d21 +1 t_d22
  +1 t_d25 +1 t_d26 +1 t_d31 +1 t_d32 +1 t_d33 +1 t_d34 +1 t_d39 +1 t_d40 +1 t_d43 +1 t_d44 +1 t_d45 +1 t_d46
  +1 t_d49 +1 t_d50 +1 t_d55 +1 t_d56 +1 t_d59 +1 t_d60 +1 t_d61 +1 t_d62 >= +5
 R35: +1 t_d52 +1 t_d1 +1 t_d3 +1 t_d6 +1 t_d8 +1 t_d9 +1 t_d11 +1 t_d14 +1 t_d16 +1 t_d17 +1 t_d19 +1 t_d22
  +1 t_d24 +1 t_d25 +1 t_d27 +1 t_d30 +1 t_d32 +1 t_d34 +1 t_d36 +1 t_d37 +1 t_d39 +1 t_d42 +1 t_d44 +1 t_d45
  +1 t_d47 +1 t_d50 +1 t_d53 +1 t_d55 +1 t_d58 +1 t_d60 +1 t_d61 +1 t_d63 >= +6
 R32: +1 t_d1 +1 t_d3 +1 t_d5 +1 t_d7 +1 t_d9 +1 t_d11 +1 t_d13 +1 t_d15 +1 t_d18 +1 t_d20 +1 t_d22 +1 t_d24
  +1 t_d26 +1 t_d28 +1 t_d30 +1 t_d32 +1 t_d34 +1 t_d36 +1 t_d38 +1 t_d40 +1 t_d42 +1 t_d44 +1 t_d46 +1 t_d48
  +1 t_d49 +1 t_d51 +1 t_d53 +1 t_d55 +1 t_d57 +1 t_d59 +1 t_d61 +1 t_d63 >= +6
 R21: +1 t_d2 +1 t_d3 +1 t_d6 +1 t_d7 +1 t_d10 +1 t_d11 +1 t_d14 +1 t_d15 +1 t_d18 +1 t_d19 +1 t_d22 +1 t_d23
  +1 t_d26 +1 t_d27 +1 t_d30 +1 t_d31 +1 t_d34 +1 t_d35 +1 t_d38 +1 t_d39 +1 t_d42 +1 t_d43 +1 t_d46 +1 t_d47
  +1 t_d50 +1 t_d51 +1 t_d54 +1 t_d55 +1 t_d58 +1 t_d59 +1 t_d62 +1 t_d63 >= +7
 R19: +1 t_d52 +1 t_d2 +1 t_d4 +1 t_d6 +1 t_d8 +1 t_d9 +1 t_d11 +1 t_d13 +1 t_d15 +1 t_d18 +1 t_d20 +1 t_d22
  +1 t_d24 +1 t_d25 +1 t_d27 +1 t_d29 +1 t_d31 +1 t_d34 +1 t_d36 +1 t_d38 +1 t_d40 +1 t_d41 +1 t_d43 +1 t_d45
  +1 t_d47 +1 t_d50 +1 t_d54 +1 t_d56 +1 t_d57 +1 t_d59 +1 t_d61 +1 t_d63 >= +7
 R7: +1 t_d17 +1 t_d18 +1 t_d19 +1 t_d20 +1 t_d21 +1 t_d22 +1 t_d23 +1 t_d24 +1 t_d25 +1 t_d26 +1 t_d27
  +1 t_d28 +1 t_d29 +1 t_d30 +1 t_d31 +1 t_d32 +1 t_d33 +1 t_d34 +1 t_d35 +1 t_d36 +1 t_d37 +1 t_d38 +1 t_d39
  +1 t_d40 +1 t_d41 +1 t_d42 +1 t_d43 +1 t_d44 +1 t_d45 +1 t_d46 +1 t_d47 +1 t_d48 >= +7
 R5: +1 t_d1 +1 t_d2 +1 t_d5 +1 t_d6 +1 t_d9 +1 t_d10 +1 t_d13 +1 t_d14 +1 t_d17 +1 t_d18 +1 t_d21 +1 t_d22
  +1 t_d25 +1 t_d26 +1 t_d29 +1 t_d30 +1 t_d33 +1 t_d34 +1 t_d37 +1 t_d38 +1 t_d41 +1 t_d42 +1 t_d45 +1 t_d46
  +1 t_d49 +1 t_d50 +1 t_d53 +1 t_d54 +1 t_d57 +1 t_d58 +1 t_d61 +1 t_d62 >= +8
 R20: +1 t_d52 +1 t_d2 +1 t_d4 +1 t_d5 +1 t_d7 +1 t_d10 +1 t_d12 +1 t_d13 +1 t_d15 +1 t_d18 +1 t_d20 +1 t_d21
  +1 t_d23 +1 t_d26 +1 t_d28 +1 t_d29 +1 t_d31 +1 t_d34 +1 t_d36 +1 t_d37 +1 t_d39 +1 t_d42 +1 t_d44 +1 t_d45
  +1 t_d47 +1 t_d50 +1 t_d53 +1 t_d55 +1 t_d58 +1 t_d60 +1 t_d61 +1 t_d63 >= +7
 R63: +1 t_d2 +1 t_d3 +1 t_d5 +1 t_d8 +1 t_d9 +1 t_d12 +1 t_d14 +1 t_d15 +1 t_d17 +1 t_d20 +1 t_d22 +1 t_d23
  +1 t_d26 +1 t_d27 +1 t_d29 +1 t_d32 +1 t_d33 +1 t_d36 +1 t_d38 +1 t_d39 +1 t_d42 +1 t_d43 +1 t_d45 +1 t_d48
  +1 t_d50 +1 t_d51 +1 t_d53 +1 t_d56 +1 t_d57 +1 t_d60 +1 t_d62 +1 t_d63 >= +3
 R57: +1 t_d1 +1 t_d2 +1 t_d7 +1 t_d8 +1 t_d11 +1 t_d12 +1 t_d13 +1 t_d14 +1 t_d19 +1 t_d20 +1 t_d21 +1 t_d22
  +1 t_d25 +1 t_d26 +1 t_d31 +1 t_d32 +1 t_d35 +1 t_d36 +1 t_d37 +1 t_d38 +1 t_d41 +1 t_d42 +1 t_d47 +1 t_d48
  +1 t_d49 +1 t_d50 +1 t_d55 +1 t_d56 +1 t_d59 +1 t_d60 +1 t_d61 +1 t_d62 >= +4
 R52: +1 t_d52 +1 t_d2 +1 t_d3 +1 t_d6 +1 t_d7 +1 t_d9 +1 t_d12 +1 t_d13 +1 t_d16 +1 t_d18 +1 t_d19 +1 t_d22
  +1 t_d23 +1 t_d25 +1 t_d28 +1 t_d29 +1 t_d32 +1 t_d33 +1 t_d36 +1 t_d37 +1 t_d40 +1 t_d42 +1 t_d43 +1 t_d46
  +1 t_d47 +1 t_d49 +1 t_d53 +1 t_d56 +1 t_d58 +1 t_d59 +1 t_d62 +1 t_d63 >= +5
 R34: +1 t_d52 +1 t_d1 +1 t_d3 +1 t_d5 +1 t_d7 +1 t_d10 +1 t_d12 +1 t_d14 +1 t_d16 +1 t_d18 +1 t_d20 +1 t_d22
  +1 t_d24 +1 t_d25 +1 t_d27 +1 t_d29 +1 t_d31 +1 t_d33 +1 t_d35 +1 t_d37 +1 t_d39 +1 t_d42 +1 t_d44 +1 t_d46
  +1 t_d48 +1 t_d50 +1 t_d54 +1 t_d56 +1 t_d57 +1 t_d59 +1 t_d61 +1 t_d63 >= +6
 R27: +1 t_d52 +1 t_d1 +1 t_d2 +1 t_d5 +1 t_d6 +1 t_d11 +1 t_d12 +1 t_d15 +1 t_d16 +1 t_d17 +1 t_d18 +1 t_d21
  +1 t_d22 +1 t_d27 +1 t_d28 +1 t_d31 +1 t_d32 +1 t_d35 +1 t_d36 +1 t_d39 +1 t_d40 +1 t_d41 +1 t_d42 +1 t_d45
  +1 t_d46 +1 t_d51 +1 t_d55 +1 t_d56 +1 t_d57 +1 t_d58 +1 t_d61 +1 t_d62 >= +6
 R14: +1 t_d3 +1 t_d4 +1 t_d7 +1 t_d8 +1 t_d11 +1 t_d12 +1 t_d15 +1 t_d16 +1 t_d17 +1 t_d18 +1 t_d21 +1 t_d22
  +1 t_d25 +1 t_d26 +1 t_d29 +1 t_d30 +1 t_d35 +1 t_d36 +1 t_d39 +1 t_d40 +1 t_d43 +1 t_d44 +1 t_d47 +1 t_d48
  +1 t_d49 +1 t_d50 +1 t_d53 +1 t_d54 +1 t_d57 +1 t_d58 +1 t_d61 +1 t_d62 >= +7
 R60: +1 t_d52 +1 t_d1 +1 t_d4 +1 t_d6 +1 t_d7 +1 t_d9 +1 t_d12 +1 t_d14 +1 t_d15 +1 t_d18 +1 t_d19 +1 t_d21
  +1 t_d24 +1 t_d26 +1 t_d27 +1 t_d29 +1 t_d32 +1 t_d34 +1 t_d35 +1 t_d37 +1 t_d40 +1 t_d42 +1 t_d43 +1 t_d45
  +1 t_d48 +1 t_d49 +1 t_d54 +1 t_d55 +1 t_d57 +1 t_d60 +1 t_d62 +1 t_d63 >= +4
 R59: +1 t_d52 +1 t_d1 +1 t_d4 +1 t_d5 +1 t_d8 +1 t_d10 +1 t_d11 +1 t_d14 +1 t_d15 +1 t_d18 +1 t_d19 +1 t_d22
  +1 t_d23 +1 t_d25 +1 t_d28 +1 t_d29 +1 t_d32 +1 t_d34 +1 t_d35 +1 t_d38 +1 t_d39 +1 t_d41 +1 t_d44 +1 t_d45
  +1 t_d48 +1 t_d49 +1 t_d53 +1 t_d56 +1 t_d58 +1 t_d59 +1 t_d62 +1 t_d63 >= +4
 R58: +1 t_d1 +1 t_d3 +1 t_d6 +1 t_d8 +1 t_d10 +1 t_d12 +1 t_d13 +1 t_d15 +1 t_d18 +1 t_d20 +1 t_d21 +1 t_d23
  +1 t_d25 +1 t_d27 +1 t_d30 +1 t_d32 +1 t_d34 +1 t_d36 +1 t_d37 +1 t_d39 +1 t_d41 +1 t_d43 +1 t_d46 +1 t_d48
  +1 t_d49 +1 t_d51 +1 t_d54 +1 t_d56 +1 t_d58 +1 t_d60 +1 t_d61 +1 t_d63 >= +4
 R53: +1 t_d52 +1 t_d2 +1 t_d3 +1 t_d6 +1 t_d7 +1 t_d9 +1 t_d12 +1 t_d13 +1 t_d16 +1 t_d17 +1 t_d20 +1 t_d21
  +1 t_d24 +1 t_d26 +1 t_d27 +1 t_d30 +1 t_d31 +1 t_d34 +1 t_d35 +1 t_d38 +1 t_d39 +1 t_d41 +1 t_d44 +1 t_d45
  +1 t_d48 +1 t_d49 +1 t_d53 +1 t_d56 +1 t_d58 +1 t_d59 +1 t_d62 +1 t_d63 >= +5
 R50: +1 t_d2 +1 t_d4 +1 t_d5 +1 t_d7 +1 t_d9 +1 t_d11 +1 t_d14 +1 t_d16 +1 t_d17 +1 t_d19 +1 t_d22 +1 t_d24
  +1 t_d26 +1 t_d28 +1 t_d29 +1 t_d31 +1 t_d34 +1 t_d36 +1 t_d37 +1 t_d39 +1 t_d41 +1 t_d43 +1 t_d46 +1 t_d48
  +1 t_d49 +1 t_d51 +1 t_d54 +1 t_d56 +1 t_d58 +1 t_d60 +1 t_d61 +1 t_d63 >= +5
 R31: +1 t_d1 +1 t_d2 +1 t_d7 +1 t_d8 +1 t_d11 +1 t_d12 +1 t_d13 +1 t_d14 +1 t_d17 +1 t_d18 +1 t_d23 +1 t_d24
  +1 t_d27 +1 t_d28 +1 t_d29 +1 t_d30 +1 t_d33 +1 t_d34 +1 t_d39 +1 t_d40 +1 t_d43 +1 t_d44 +1 t_d45 +1 t_d46
  +1 t_d49 +1 t_d50 +1 t_d55 +1 t_d56 +1 t_d59 +1 t_d60 +1 t_d61 +1 t_d62 >= +6
 R61: +1 t_d1 +1 t_d4 +1 t_d6 +1 t_d7 +1 t_d10 +1 t_d11 +1 t_d13 +1 t_d16 +1 t_d17 +1 t_d20 +1 t_d22 +1 t_d23
  +1 t_d26 +1 t_d27 +1 t_d29 +1 t_d32 +1 t_d34 +1 t_d35 +1 t_d37 +1 t_d40 +1 t_d41 +1 t_d44 +1 t_d46 +1 t_d47
  +1 t_d50 +1 t_d51 +1 t_d53 +1 t_d56 +1 t_d57 +1 t_d60 +1 t_d62 +1 t_d63 >= +4
 R54: +1 t_d52 +1 t_d2 +1 t_d3 +1 t_d5 +1 t_d8 +1 t_d10 +1 t_d11 +1 t_d13 +1 t_d16 +1 t_d18 +1 t_d19 +1 t_d21
  +1 t_d24 +1 t_d26 +1 t_d27 +1 t_d29 +1 t_d32 +1 t_d33 +1 t_d36 +1 t_d38 +1 t_d39 +1 t_d41 +1 t_d44 +1 t_d46
  +1 t_d47 +1 t_d49 +1 t_d54 +1 t_d55 +1 t_d57 +1 t_d60 +1 t_d62 +1 t_d63 >= +5
 R49: +1 t_d2 +1 t_d4 +1 t_d5 +1 t_d7 +1 t_d9 +1 t_d11 +1 t_d14 +1 t_d16 +1 t_d18 +1 t_d20 +1 t_d21 +1 t_d23
  +1 t_d25 +1 t_d27 +1 t_d30 +1 t_d32 +1 t_d33 +1 t_d35 +1 t_d38 +1 t_d40 +1 t_d42 +1 t_d44 +1 t_d45 +1 t_d47
  +1 t_d49 +1 t_d51 +1 t_d54 +1 t_d56 +1 t_d58 +1 t_d60 +1 t_d61 +1 t_d63 >= +5
 R62: +1 t_d1 +1 t_d4 +1 t_d6 +1 t_d7 +1 t_d10 +1 t_d11 +1 t_d13 +1 t_d16 +1 t_d18 +1 t_d19 +1 t_d21 +1 t_d24
  +1 t_d25 +1 t_d28 +1 t_d30 +1 t_d31 +1 t_d33 +1 t_d36 +1 t_d38 +1 t_d39 +1 t_d42 +1 t_d43 +1 t_d45 +1 t_d48
  +1 t_d50 +1 t_d51 +1 t_d53 +1 t_d56 +1 t_d57 +1 t_d60 +1 t_d62 +1 t_d63 >= +4
 newcut_1: -1.0 t_d1 -1.0 t_d2 -1.0 t_d3 -1.0 t_d4 -1.0 t_d5 -1.0 t_d6 -1.0 t_d7 -1.0 t_d8 -1.0 t_d9 -1.0 t_d10 -1.0 t_d11 -1.0 t_d12 -1.0 t_d13 -1.0 t_d14 -1.0 t_d15 -1.0 t_d16 -1.0 t_d17 -1.0 t_d18 -1.0 t_d19 -1.0 t_d20 -1.0 t_d21 -1.0 t_d22 -1.0 t_d23 -1.0 t_d24 -1.0 t_d25 -1.0 t_d26 -1.0 t_d27 -1.0 t_d28 -1.0 t_d29 -1.0 t_d30 -1.0 t_d31 -1.0 t_d32 -1.0 t_d33 -1.0 t_d34 -1.0 t_d35 -1.0 t_d36 -1.0 t_d37 -1.0 t_d38 -1.0 t_d39 -1.0 t_d40 -1.0 t_d41 -1.0 t_d42 -1.0 t_d43 -1.0 t_d44 -1.0 t_d45 -1.0 t_d46 -1.0 t_d47 -1.0 t_d48 <= -12.0
 newcut_2: -0.44444444444444114 t_d52 -0.9444444444444439 t_d1 -0.9444444444444442 t_d2 -0.9444444444444438 t_d3 -0.9444444444444441 t_d4 -0.9444444444444441 t_d5 -0.9444444444444441 t_d6 -0.944444444444444 t_d7 -0.9444444444444441 t_d8 -0.9444444444444441 t_d9 -0.9444444444444442 t_d10 -0.9444444444444442 t_d11 -0.9444444444444442 t_d12 -0.9444444444444441 t_d13 -0.9444444444444439 t_d14 -0.9444444444444441 t_d15 -0.9444444444444439 t_d16 -0.8888888888888886 t_d17 -1.0 t_d18 -1.0 t_d19 -0.44444444444444087 t_d20 -0.8888888888888885 t_d21 -1.0 t_d22 -1.0 t_d23 -0.44444444444444114 t_d24 -0.8888888888888885 t_d25 -1.0 t_d26 -1.0 t_d27 -0.44444444444444114 t_d28 -0.8888888888888883 t_d29 -1.0 t_d30 -1.0 t_d31 -0.44444444444444114 t_d32 -0.9444444444444438 t_d33 -0.944444444444444 t_d34 -0.9444444444444438 t_d35 -0.944444444444444 t_d36 -0.9444444444444443 t_d37 -0.9444444444444442 t_d38 -0.9444444444444442 t_d39 -0.9444444444444442 t_d40 -0.9444444444444441 t_d41 -0.944444444444444 t_d42 -0.9444444444444441 t_d43 -0.944444444444444 t_d44 -0.9444444444444442 t_d45 -0.9444444444444439 t_d46 -0.9444444444444443 t_d47 -0.944444444444444 t_d48 -0.8888888888888887 t_d49 -1.0 t_d50 -1.0 t_d51 -0.8888888888888885 t_d53 -1.0 t_d54 -1.0 t_d55 -0.6666666666666659 t_d56 -0.8888888888888896 t_d57 -1.0 t_d58 -1.0 t_d59 -0.6666666666666674 t_d60 -0.8888888888888886 t_d61 -1.0 t_d62 -1.0 t_d63 <= -12.499999999999995
 newcut_3: -0.6871165644171802 t_d52 -0.8650306748466257 t_d1 -0.8404907975460105 t_d2 -0.8036809815950922 t_d3 -0.6073619631901841 t_d4 -0.687116564417178 t_d5 -0.785276073619632 t_d6 -0.6871165644171777 t_d7 -0.7852760736196319 t_d8 -0.6871165644171779 t_d9 -0.7852760736196319 t_d10 -0.6871165644171776 t_d11 -0.7852760736196318 t_d12 -0.7177914110429446 t_d13 -0.8159509202453987 t_d14 -0.7791411042944786 t_d15 -0.8773006134969328 t_d16 -0.7116564417177915 t_d17 -0.6993865030674845 t_d18 -0.6625766871165645 t_d19 -0.8711656441717791 t_d20 -0.6809815950920247 t_d21 -0.7914110429447855 t_d22 -0.6932515337423312 t_d23 -0.9018404907975458 t_d24 -0.6809815950920246 t_d25 -0.7914110429447854 t_d26 -0.6932515337423311 t_d27 -0.9018404907975457 t_d28 -0.8588957055214724 t_d29 -0.9693251533742332 t_d30 -0.932515337423315 t_d31 -0.674846625766869 t_d32 -1.0 t_d33 -0.6809815950920224 t_d34 -0.6441717791411044 t_d35 -0.4478527607361963 t_d36 -0.7607361963190185 t_d37 -0.8588957055214724 t_d38 -0.7607361963190182 t_d39 -0.8588957055214724 t_d40 -0.7607361963190186 t_d41 -0.8588957055214725 t_d42 -0.7607361963190183 t_d43 -0.8588957055214727 t_d44 -0.7300613496932513 t_d45 -0.8282208588957053 t_d46 -0.7914110429447854 t_d47 -0.5950920245398773 t_d48 -0.723926380368098 t_d49 -0.7116564417177912 t_d50 -0.6748466257668713 t_d51 -0.754601226993865 t_d53 -0.8650306748466261 t_d54 -0.7668711656441721 t_d55 -0.8282208588957058 t_d56 -0.7546012269938651 t_d57 -0.8650306748466258 t_d58 -0.7668711656441718 t_d59 -0.8282208588957057 t_d60 -0.871165644171779 t_d61 -0.8588957055214722 t_d62 -0.7730061349693254 t_d63 <= -9.779141104294478
 newcut_4: -0.49428571428570994 t_d52 -0.9528571428571424 t_d1 -0.992857142857143 t_d2 -0.97 t_d3 -0.9757142857142853 t_d4 -0.952857142857143 t_d5 -0.9928571428571428 t_d6 -0.9699999999999994 t_d7 -0.975714285714285 t_d8 -0.9528571428571427 t_d9 -0.9928571428571427 t_d10 -0.9700000000000002 t_d11 -0.9757142857142854 t_d12 -0.952857142857143 t_d13 -0.992857142857143 t_d14 -0.9699999999999995 t_d15 -0.9757142857142854 t_d16 -0.9528571428571421 t_d17 -0.9928571428571423 t_d18 -0.9699999999999998 t_d19 -0.9757142857142851 t_d20 -0.9528571428571426 t_d21 -0.9928571428571427 t_d22 -0.9699999999999993 t_d23 -0.9757142857142854 t_d24 -0.9528571428571426 t_d25 -0.9928571428571427 t_d26 -0.9700000000000003 t_d27 -0.9757142857142854 t_d28 -0.952857142857143 t_d29 -0.992857142857143 t_d30 -0.9700000000000002 t_d31 -0.9757142857142854 t_d32 -0.9114285714285709 t_d33 -1.0 t_d34 -0.9628571428571429 t_d35 -0.49428571428570955 t_d36 -0.911428571428571 t_d37 -1.0 t_d38 -0.9628571428571423 t_d39 -0.49428571428571 t_d40 -0.9114285714285708 t_d41 -1.0 t_d42 -0.9628571428571426 t_d43 -0.49428571428570994 t_d44 -0.9114285714285705 t_d45 -1.0 t_d46 -0.9628571428571426 t_d47 -0.49428571428570994 t_d48 -0.9114285714285714 t_d49 -1.0 t_d50 -0.9628571428571426 t_d51 -0.911428571428571 t_d53 -1.0 t_d54 -0.9628571428571427 t_d55 -0.7142857142857135 t_d56 -0.9114285714285708 t_d57 -1.0 t_d58 -0.9628571428571427 t_d59 -0.7142857142857127 t_d60 -0.9114285714285713 t_d61 -1.0 t_d62 -0.9628571428571426 t_d63 <= -12.778571428571423
 newcut_5: -0.9468290234818668 t_d52 -0.9365210385905591 t_d1 -0.9189492590929496 t_d2 -0.9365210385905594 t_d3 -0.9189492590929494 t_d4 -0.9365210385905595 t_d5 -0.9890382735941252 t_d6 -0.9365210385905592 t_d7 -0.9890382735941251 t_d8 -0.9365210385905591 t_d9 -0.9189492590929498 t_d10 -0.9365210385905591 t_d11 -0.9189492590929492 t_d12 -0.9365210385905592 t_d13 -0.9890382735941251 t_d14 -0.936521038590559 t_d15 -0.9890382735941252 t_d16 -0.88093319950342 t_d17 -0.9468290234818668 t_d18 -0.8809331995034201 t_d19 -0.9468290234818668 t_d20 -0.9220198631765227 t_d21 -0.499709448215745 t_d22 -0.9220198631765226 t_d23 -0.4997094482157452 t_d24 -0.8809331995034201 t_d25 -0.9468290234818664 t_d26 -0.88093319950342 t_d27 -0.9468290234818668 t_d28 -0.9220198631765227 t_d29 -0.4997094482157452 t_d30 -0.9220198631765231 t_d31 -0.49970944821574514 t_d32 -0.9365210385905589 t_d33 -0.9189492590929493 t_d34 -0.9365210385905596 t_d35 -0.9189492590929496 t_d36 -0.9365210385905591 t_d37 -0.989038273594125 t_d38 -0.9365210385905592 t_d39 -0.9890382735941252 t_d40 -0.9365210385905592 t_d41 -0.9189492590929494 t_d42 -0.9365210385905591 t_d43 -0.9189492590929494 t_d44 -0.9365210385905591 t_d45 -0.9890382735941252 t_d46 -0.9365210385905594 t_d47 -0.9890382735941252 t_d48 -0.8809331995034201 t_d49 -0.9468290234818668 t_d50 -0.88093319950342 t_d51 -0.9220198631765232 t_d53 -1.0 t_d54 -0.922019863176523 t_d55 -0.7193269764124777 t_d56 -0.8809331995034203 t_d57 -0.9468290234818668 t_d58 -0.8809331995034202 t_d59 -0.9468290234818668 t_d60 -0.922019863176523 t_d61 -0.845320795583612 t_d62 -0.922019863176523 t_d63 <= -12.336148604030738
 newcut_6: -0.9290672295638709 t_d52 -0.9399322978819645 t_d1 -0.929067229563871 t_d2 -0.9399322978819644 t_d3 -0.9290672295638711 t_d4 -0.945152458476831 t_d5 -0.9520973498353416 t_d6 -0.945152458476831 t_d7 -0.9520973498353414 t_d8 -0.9399322978819645 t_d9 -1.0 t_d10 -0.9399322978819646 t_d11 -1.0 t_d12 -0.986450382732099 t_d13 -0.5413181503089984 t_d14 -0.9864503827320991 t_d15 -0.5413181503089984 t_d16 -0.9399322978819644 t_d17 -0.9290672295638709 t_d18 -0.9399322978819644 t_d19 -0.929067229563871 t_d20 -0.9451524584768313 t_d21 -0.9520973498353417 t_d22 -0.9451524584768313 t_d23 -0.9520973498353414 t_d24 -0.9399322978819646 t_d25 -1.0 t_d26 -0.9399322978819646 t_d27 -1.0 t_d28 -0.986450382732099 t_d29 -0.5413181503089985 t_d30 -0.986450382732099 t_d31 -0.5413181503089984 t_d32 -0.9399322978819645 t_d33 -0.9290672295638709 t_d34 -0.9399322978819645 t_d35 -0.929067229563871 t_d36 -0.9451524584768312 t_d37 -0.9520973498353413 t_d38 -0.9451524584768313 t_d39 -0.9520973498353414 t_d40 -0.9399322978819644 t_d41 -1.0 t_d42 -0.9399322978819644 t_d43 -1.0 t_d44 -0.9864503827320988 t_d45 -0.5413181503089984 t_d46 -0.9864503827320993 t_d47 -0.5413181503089984 t_d48 -0.9399322978819645 t_d49 -0.9290672295638711 t_d50 -0.9399322978819645 t_d51 -0.9451524584768308 t_d53 -0.9520973498353414 t_d54 -0.9451524584768312 t_d55 -0.9520973498353416 t_d56 -0.9399322978819645 t_d57 -1.0 t_d58 -0.9399322978819644 t_d59 -1.0 t_d60 -0.986450382732099 t_d61 -0.7858226395735604 t_d62 -0.986450382732099 t_d63 <= -12.66119245457872
 newcut_7: -0.9702172894203942 t_d52 -0.9800175661933563 t_d1 -0.9782456253346382 t_d2 -0.9800175661933564 t_d3 -0.9782456253346381 t_d4 -0.9800175661933564 t_d5 -0.9782456253346383 t_d6 -0.9800175661933563 t_d7 -0.978245625334638 t_d8 -0.9849225319108663 t_d9 -1.0 t_d10 -0.9849225319108664 t_d11 -1.0 t_d12 -0.9849225319108664 t_d13 -1.0 t_d14 -0.9849225319108664 t_d15 -1.0 t_d16 -0.9800175661933563 t_d17 -0.9782456253346381 t_d18 -0.9800175661933563 t_d19 -0.9782456253346382 t_d20 -0.9800175661933563 t_d21 -0.978245625334638 t_d22 -0.9800175661933563 t_d23 -0.9782456253346382 t_d24 -0.9849225319108663 t_d25 -1.0 t_d26 -0.9849225319108663 t_d27 -1.0 t_d28 -0.9849225319108663 t_d29 -1.0 t_d30 -0.9849225319108666 t_d31 -1.0 t_d32 -0.9616472465389366 t_d33 -0.9702172894203943 t_d34 -0.9616472465389369 t_d35 -0.9702172894203944 t_d36 -0.9616472465389366 t_d37 -0.9702172894203942 t_d38 -0.9616472465389366 t_d39 -0.9702172894203942 t_d40 -0.9665522122564466 t_d41 -0.592933171965976 t_d42 -0.9665522122564465 t_d43 -0.5929331719659758 t_d44 -0.9665522122564464 t_d45 -0.5929331719659758 t_d46 -0.9665522122564468 t_d47 -0.5929331719659758 t_d48 -0.961647246538937 t_d49 -0.9702172894203941 t_d50 -0.9616472465389366 t_d51 -0.9616472465389365 t_d53 -0.9702172894203943 t_d54 -0.9616472465389367 t_d55 -0.9702172894203942 t_d56 -0.9665522122564468 t_d57 -0.9919716640857561 t_d58 -0.9665522122564466 t_d59 -0.8484005956927301 t_d60 -0.9665522122564466 t_d61 -0.8784873173355271 t_d62 -0.9665522122564467 t_d63 <= -13.049769231512071
 newcut_8: -0.9666420569204801 t_d52 -0.9705009740279708 t_d1 -1.0 t_d2 -0.9838466779649189 t_d3 -0.96664205692048 t_d4 -0.9787101537377123 t_d5 -0.975812918911674 t_d6 -0.9920558576746601 t_d7 -0.6093618655170491 t_d8 -0.9705009740279712 t_d9 -1.0 t_d10 -0.9838466779649191 t_d11 -0.9666420569204796 t_d12 -0.9787101537377124 t_d13 -0.9758129189116732 t_d14 -0.9920558576746601 t_d15 -0.6093618655170494 t_d16 -0.9705009740279706 t_d17 -1.0 t_d18 -0.9838466779649188 t_d19 -0.9666420569204804 t_d20 -0.9787101537377122 t_d21 -0.9758129189116737 t_d22 -0.9920558576746601 t_d23 -0.6093618655170494 t_d24 -0.9705009740279711 t_d25 -1.0 t_d26 -0.983846677964919 t_d27 -0.9666420569204801 t_d28 -0.9787101537377122 t_d29 -0.9758129189116737 t_d30 -0.9920558576746603 t_d31 -0.6093618655170494 t_d32 -0.9705009740279712 t_d33 -1.0 t_d34 -0.9838466779649192 t_d35 -0.9666420569204798 t_d36 -0.9787101537377121 t_d37 -0.9758129189116729 t_d38 -0.99205585767466 t_d39 -0.6093618655170494 t_d40 -0.9705009740279716 t_d41 -1.0 t_d42 -0.9838466779649193 t_d43 -0.9666420569204801 t_d44 -0.9787101537377122 t_d45 -0.9758129189116737 t_d46 -0.9920558576746602 t_d47 -0.6093618655170494 t_d48 -0.9705009740279714 t_d49 -1.0 t_d50 -0.9838466779649192 t_d51 -0.9787101537377121 t_d53 -0.9758129189116737 t_d54 -0.9920558576746602 t_d55 -0.85602188550835 t_d56 -0.9705009740279718 t_d57 -1.0 t_d58 -0.9838466779649193 t_d59 -0.9666420569204801 t_d60 -0.9787101537377123 t_d61 -0.9758129189116738 t_d62 -0.99205585767466 t_d63 <= -13.126880470294426
 newcut_9: -0.9165996365282993 t_d52 -0.9512352847247761 t_d1 -0.951235284724776 t_d2 -0.9165996365282995 t_d3 -0.9165996365282995 t_d4 -0.9302498499778532 t_d5 -0.9302498499778531 t_d6 -0.9653643518035233 t_d7 -0.9653643518035233 t_d8 -0.951235284724776 t_d9 -0.951235284724776 t_d10 -0.9863497865504464 t_d11 -0.9863497865504463 t_d12 -1.0 t_d13 -1.0 t_d14 -0.5322930707713123 t_d15 -0.5322930707713123 t_d16 -0.951235284724776 t_d17 -0.9512352847247761 t_d18 -0.9165996365282995 t_d19 -0.9165996365282996 t_d20 -0.9302498499778531 t_d21 -0.9302498499778531 t_d22 -0.9653643518035234 t_d23 -0.9653643518035233 t_d24 -0.9512352847247761 t_d25 -0.9512352847247761 t_d26 -0.9863497865504464 t_d27 -0.9863497865504463 t_d28 -1.0 t_d29 -1.0 t_d30 -0.5322930707713123 t_d31 -0.5322930707713123 t_d32 -0.951235284724776 t_d33 -0.951235284724776 t_d34 -0.9165996365282993 t_d35 -0.9165996365282995 t_d36 -0.9302498499778532 t_d37 -0.9302498499778529 t_d38 -0.9653643518035234 t_d39 -0.9653643518035233 t_d40 -0.9512352847247761 t_d41 -0.951235284724776 t_d42 -0.9863497865504463 t_d43 -0.9863497865504463 t_d44 -1.0 t_d45 -1.0 t_d46 -0.5322930707713125 t_d47 -0.5322930707713123 t_d48 -0.9512352847247759 t_d49 -0.9512352847247761 t_d50 -0.9165996365282993 t_d51 -0.9302498499778529 t_d53 -0.930249849977853 t_d54 -0.9653643518035233 t_d55 -0.9653643518035233 t_d56 -0.9512352847247761 t_d57 -0.951235284724776 t_d58 -0.9863497865504463 t_d59 -0.9863497865504463 t_d60 -1.0 t_d61 -1.0 t_d62 -0.8612083225069004 t_d63 <= -12.65790586961411
Bounds
 0 <= t_d52 <= 1
 0 <= t_d1 <= 1
 0 <= t_d2 <= 1
 0 <= t_d3 <= 1
 0 <= t_d4 <= 1
 0 <= t_d5 <= 1
 0 <= t_d6 <= 1
 0 <= t_d7 <= 1
 0 <= t_d8 <= 1
 0 <= t_d9 <= 1
 0 <= t_d10 <= 1
 0 <= t_d11 <= 1
 0 <= t_d12 <= 1
 0 <= t_d13 <= 1
 0 <= t_d14 <= 1
 0 <= t_d15 <= 1
 0 <= t_d16 <= 1
 0 <= t_d17 <= 1
 0 <= t_d18 <= 1
 0 <= t_d19 <= 1
 0 <= t_d20 <= 1
 0 <= t_d21 <= 1
 0 <= t_d22 <= 1
 0 <= t_d23 <= 1
 0 <= t_d24 <= 1
 0 <= t_d25 <= 1
 0 <= t_d26 <= 1
 0 <= t_d27 <= 1
 0 <= t_d28 <= 1
 0 <= t_d29 <= 1
 0 <= t_d30 <= 1
 0 <= t_d31 <= 1
 0 <= t_d32 <= 1
 0 <= t_d33 <= 1
 0 <= t_d34 <= 1
 0 <= t_d35 <= 1
 0 <= t_d36 <= 1
 0 <= t_d37 <= 1
 0 <= t_d38 <= 1
 0 <= t_d39 <= 1
 0 <= t_d40 <= 1
 0 <= t_d41 <= 1
 0 <= t_d42 <= 1
 0 <= t_d43 <= 1
 0 <= t_d44 <= 1
 0 <= t_d45 <= 1
 0 <= t_d46 <= 1
 0 <= t_d47 <= 1
 0 <= t_d48 <= 1
 0 <= t_d49 <= 1
 0 <= t_d50 <= 1
 0 <= t_d51 <= 1
 0 <= t_d53 <= 1
 0 <= t_d54 <= 1
 0 <= t_d55 <= 1
 0 <= t_d56 <= 1
 0 <= t_d57 <= 1
 0 <= t_d58 <= 1
 0 <= t_d59 <= 1
 0 <= t_d60 <= 1
 0 <= t_d61 <= 1
 0 <= t_d62 <= 1
 0 <= t_d63 <= 1
Binaries
 t_d52 t_d1 t_d2 t_d3 t_d4 t_d5 t_d6 t_d7 t_d8 t_d9 t_d10 t_d11 t_d12 t_d13 t_d14 t_d15 t_d16 t_d17 t_d18
 t_d19 t_d20 t_d21 t_d22 t_d23 t_d24 t_d25 t_d26 t_d27 t_d28 t_d29 t_d30 t_d31 t_d32 t_d33 t_d34 t_d35
 t_d36 t_d37 t_d38 t_d39 t_d40 t_d41 t_d42 t_d43 t_d44 t_d45 t_d46 t_d47 t_d48 t_d49 t_d50 t_d51 t_d53
End
